(set-logic QF_S)
(set-option :parse-transducers true)
(set-option :produce-models true)
(define-fun-rec toLower ((x String) (y String)) Bool
   (or (and (= x "") (= y ""))
       (and (not (= x "")) (not (= y ""))
           (= (char.code (str.head y))
               (ite (and (<= 65 (char.code (str.head x)))
                       (<= (char.code (str.head x)) 90))
                   (+ (char.code (str.head x)) 32)
                   (char.code (str.head x))))
           (toLower (str.tail x) (str.tail y))))
)
(declare-fun sym205 () String)
(declare-fun sym328 () String)
(declare-fun sym725 () String)
(declare-fun sym605 () String)
(declare-fun sym409 () String)
(declare-fun sym681 () String)
(declare-fun sym363 () String)
(declare-fun sym485 () String)
(declare-fun sym289 () String)
(declare-fun sym445 () String)
(declare-fun sym160 () String)
(declare-fun sym338 () String)
(declare-fun sym615 () String)
(declare-fun sym419 () String)
(declare-fun sym175 () String)
(declare-fun sym373 () String)
(declare-fun sym571 () String)
(declare-fun sym254 () String)
(declare-fun sym299 () String)
(declare-fun sym651 () String)
(declare-fun sym135 () String)
(declare-fun sym499 () String)
(declare-fun sym455 () String)
(declare-fun sym533 () String)
(declare-fun sym215 () String)
(declare-fun sym691 () String)
(declare-fun sym20 () String)
(declare-fun sym547 () String)
(declare-fun sym625 () String)
(declare-fun sym429 () String)
(declare-fun sym705 () String)
(declare-fun sym509 () String)
(declare-fun sym264 () String)
(declare-fun sym661 () String)
(declare-fun sym465 () String)
(declare-fun sym389 () String)
(declare-fun sym225 () String)
(declare-fun sym185 () String)
(declare-fun sym581 () String)
(declare-fun sym557 () String)
(declare-fun sym239 () String)
(declare-fun sym635 () String)
(declare-fun sym715 () String)
(declare-fun sym519 () String)
(declare-fun sym671 () String)
(declare-fun sym353 () String)
(declare-fun sym475 () String)
(declare-fun sym113 () String)
(declare-fun sym399 () String)
(declare-fun sym279 () String)
(declare-fun sym313 () String)
(declare-fun sym150 () String)
(declare-fun sym591 () String)
(declare-fun sym195 () String)
(declare-fun L27  () String)
(declare-fun L39  () String)
(declare-fun L19  () String)
(declare-fun L23  () String)
(declare-fun L67  () String)
(declare-fun L106  () String)
(declare-fun L35  () String)
(declare-fun L47  () String)
(declare-fun L15  () String)
(declare-fun L59  () String)
(declare-fun L7  () String)
(declare-fun L63  () String)
(declare-fun L31  () String)
(declare-fun L43  () String)
(declare-fun L11  () String)
(declare-fun L55  () String)
(declare-fun L3  () String)
(declare-fun L71  () String)
(declare-fun L51  () String)
(declare-fun L102  () String)
(declare-fun L38  () String)
(declare-fun L78  () String)
(declare-fun L46  () String)
(declare-fun L14  () String)
(declare-fun L58  () String)
(declare-fun L8  () String)
(declare-fun L86  () String)
(declare-fun L98  () String)
(declare-fun L4  () String)
(declare-fun L82  () String)
(declare-fun L94  () String)
(declare-fun L0  () String)
(declare-fun L90  () String)
(declare-fun L49  () String)
(declare-fun L17  () String)
(declare-fun L29  () String)
(declare-fun L45  () String)
(declare-fun L13  () String)
(declare-fun L57  () String)
(declare-fun L9  () String)
(declare-fun L25  () String)
(declare-fun L69  () String)
(declare-fun L104  () String)
(declare-fun L37  () String)
(declare-fun L41  () String)
(declare-fun L53  () String)
(declare-fun L21  () String)
(declare-fun L65  () String)
(declare-fun L33  () String)
(declare-fun L1  () String)
(declare-fun L61  () String)
(declare-fun L73  () String)
(declare-fun L100  () String)
(declare-fun L96  () String)
(declare-fun L20  () String)
(declare-fun L76  () String)
(declare-fun L6  () String)
(declare-fun L88  () String)
(declare-fun L92  () String)
(declare-fun L2  () String)
(declare-fun L84  () String)
(declare-fun L80  () String)
(assert (toLower sym691  L80 ))
(assert (toLower sym338  L84 ))
(assert (toLower sym113  L2 ))
(assert (toLower sym289  L92 ))
(assert (toLower sym635  L88 ))
(assert (toLower sym20  L6 ))
(assert (toLower sym671  L76 ))
(assert (toLower "option"  L20 ))
(assert (toLower sym279  L96 ))
(assert (toLower sym429  L100 ))
(assert (toLower sym455  L73 ))
(assert (toLower sym399  L61 ))
(assert (toLower "name"  L1 ))
(assert (toLower sym509  L33 ))
(assert (toLower sym215  L65 ))
(assert (toLower sym135  L21 ))
(assert (toLower sym160  L53 ))
(assert (toLower sym195  L41 ))
(assert (toLower sym225  L37 ))
(assert (toLower sym475  L104 ))
(assert (toLower sym571  L69 ))
(assert (toLower sym254  L25 ))
(assert (toLower sym705  L9 ))
(assert (toLower sym299  L57 ))
(assert (toLower sym465  L13 ))
(assert (toLower sym419  L45 ))
(assert (toLower sym175  L29 ))
(assert (toLower sym264  L17 ))
(assert (toLower sym715  L49 ))
(assert (toLower sym150  L90 ))
(assert (toLower sym533  L0 ))
(assert (toLower sym547  L94 ))
(assert (toLower sym651  L82 ))
(assert (toLower sym499  L4 ))
(assert (toLower sym681  L98 ))
(assert (toLower sym239  L86 ))
(assert (toLower "description"  L8 ))
(assert (toLower "field"  L58 ))
(assert (toLower "type"  L14 ))
(assert (toLower "length"  L46 ))
(assert (toLower sym363  L78 ))
(assert (toLower "table"  L38 ))
(assert (toLower sym445  L102 ))
(assert (toLower sym409  L51 ))
(assert (toLower sym519  L71 ))
(assert (toLower "database"  L3 ))
(assert (toLower sym328  L55 ))
(assert (toLower sym313  L11 ))
(assert (toLower sym373  L43 ))
(assert (toLower sym185  L31 ))
(assert (toLower sym661  L63 ))
(assert (toLower sym615  L7 ))
(assert (toLower sym725  L59 ))
(assert (toLower sym389  L15 ))
(assert (toLower sym581  L47 ))
(assert (toLower sym353  L35 ))
(assert (toLower sym625  L106 ))
(assert (toLower sym605  L67 ))
(assert (toLower sym557  L23 ))
(assert (toLower sym485  L19 ))
(assert (toLower sym591  L39 ))
(assert (toLower sym205  L27 ))

(assert (= L0 L1 ))
(assert (= L2 L3 ))
(assert (not (= L4 L1 )))
(assert (not (= L6 "sql" )))
(assert (not (= L7 L8 )))
(assert (not (= L9 L1 )))
(assert (= L11 L1 ))
(assert (not (= L13 L14 )))
(assert (not (= L15 L1 )))
(assert (= L17 L8 ))
(assert (= L19 L20 ))
(assert (= L21 L1 ))
(assert (= L23 L8 ))
(assert (not (= L25 L1 )))
(assert (not (= L27 L1 )))
(assert (not (= L29 L1 )))
(assert (not (= L31 L8 )))
(assert (not (= L33 L8 )))
(assert (not (= L35 L1 )))
(assert (= L37 L38 ))
(assert (= L39 L14 ))
(assert (not (= L41 L38 )))
(assert (= L43 L14 ))
(assert (not (= L45 L46 )))
(assert (not (= L47 L8 )))
(assert (not (= L49 L8 )))
(assert (not (= L51 L14 )))
(assert (= L53 L8 ))
(assert (not (= L55 L1 )))
(assert (= L57 L58 ))
(assert (not (= L59 L58 )))
(assert (not (= L61 L8 )))
(assert (not (= L63 L8 )))
(assert (not (= L65 L8 )))
(assert (not (= L67 L1 )))
(assert (not (= L69 L1 )))
(assert (= L71 L58 ))
(assert (not (= L73 L8 )))
(assert (= L6 "html" ))
(assert (not (= L76 L14 )))
(assert (not (= L78 L8 )))
(assert (= L80 L20 ))
(assert (not (= L82 L1 )))
(assert (= L84 L8 ))
(assert (= L86 L1 ))
(assert (= L88 L46 ))
(assert (not (= L90 L1 )))
(assert (not (= L92 L8 )))
(assert (not (= L94 L1 )))
(assert (not (= L96 L1 )))
(assert (not (= L98 L46 )))
(assert (= L100 L20 ))
(assert (not (= L102 L1 )))
(assert (not (= L104 L46 )))
(assert (not (= L106 L14 )))
(check-sat)
(get-model)
(exit)
